c description: There is a graph of 4 vertices with a 2-clique and a 9-coloring
c generator: CNFgen (0.9.0)
c copyright: (C) 2012-2020 Massimo Lauria <massimo.lauria@uniroma1.it>
c url: https://massimolauria.net/cnfgen
c
p cnf 50 232
-7 -8 0
-7 -9 0
-7 -10 0
-8 -9 0
-8 -10 0
-9 -10 0
7 8 9 10 0
-11 -12 0
-11 -13 0
-11 -14 0
-12 -13 0
-12 -14 0
-13 -14 0
11 12 13 14 0
-7 -11 0
-8 -12 0
-9 -13 0
-10 -14 0
1 -7 -12 0
1 -11 -8 0
2 -7 -13 0
2 -11 -9 0
3 -7 -14 0
3 -11 -10 0
4 -8 -13 0
4 -12 -9 0
5 -8 -14 0
5 -12 -10 0
6 -9 -14 0
6 -13 -10 0
-15 -16 0
-15 -17 0
-15 -18 0
-15 -19 0
-15 -20 0
-15 -21 0
-15 -22 0
-15 -23 0
-16 -17 0
-16 -18 0
-16 -19 0
-16 -20 0
-16 -21 0
-16 -22 0
-16 -23 0
-17 -18 0
-17 -19 0
-17 -20 0
-17 -21 0
-17 -22 0
-17 -23 0
-18 -19 0
-18 -20 0
-18 -21 0
-18 -22 0
-18 -23 0
-19 -20 0
-19 -21 0
-19 -22 0
-19 -23 0
-20 -21 0
-20 -22 0
-20 -23 0
-21 -22 0
-21 -23 0
-22 -23 0
15 16 17 18 19 20 21 22 23 0
-24 -25 0
-24 -26 0
-24 -27 0
-24 -28 0
-24 -29 0
-24 -30 0
-24 -31 0
-24 -32 0
-25 -26 0
-25 -27 0
-25 -28 0
-25 -29 0
-25 -30 0
-25 -31 0
-25 -32 0
-26 -27 0
-26 -28 0
-26 -29 0
-26 -30 0
-26 -31 0
-26 -32 0
-27 -28 0
-27 -29 0
-27 -30 0
-27 -31 0
-27 -32 0
-28 -29 0
-28 -30 0
-28 -31 0
-28 -32 0
-29 -30 0
-29 -31 0
-29 -32 0
-30 -31 0
-30 -32 0
-31 -32 0
24 25 26 27 28 29 30 31 32 0
-33 -34 0
-33 -35 0
-33 -36 0
-33 -37 0
-33 -38 0
-33 -39 0
-33 -40 0
-33 -41 0
-34 -35 0
-34 -36 0
-34 -37 0
-34 -38 0
-34 -39 0
-34 -40 0
-34 -41 0
-35 -36 0
-35 -37 0
-35 -38 0
-35 -39 0
-35 -40 0
-35 -41 0
-36 -37 0
-36 -38 0
-36 -39 0
-36 -40 0
-36 -41 0
-37 -38 0
-37 -39 0
-37 -40 0
-37 -41 0
-38 -39 0
-38 -40 0
-38 -41 0
-39 -40 0
-39 -41 0
-40 -41 0
33 34 35 36 37 38 39 40 41 0
-42 -43 0
-42 -44 0
-42 -45 0
-42 -46 0
-42 -47 0
-42 -48 0
-42 -49 0
-42 -50 0
-43 -44 0
-43 -45 0
-43 -46 0
-43 -47 0
-43 -48 0
-43 -49 0
-43 -50 0
-44 -45 0
-44 -46 0
-44 -47 0
-44 -48 0
-44 -49 0
-44 -50 0
-45 -46 0
-45 -47 0
-45 -48 0
-45 -49 0
-45 -50 0
-46 -47 0
-46 -48 0
-46 -49 0
-46 -50 0
-47 -48 0
-47 -49 0
-47 -50 0
-48 -49 0
-48 -50 0
-49 -50 0
42 43 44 45 46 47 48 49 50 0
-1 -15 -24 0
-1 -16 -25 0
-1 -17 -26 0
-1 -18 -27 0
-1 -19 -28 0
-1 -20 -29 0
-1 -21 -30 0
-1 -22 -31 0
-1 -23 -32 0
-2 -15 -33 0
-2 -16 -34 0
-2 -17 -35 0
-2 -18 -36 0
-2 -19 -37 0
-2 -20 -38 0
-2 -21 -39 0
-2 -22 -40 0
-2 -23 -41 0
-3 -15 -42 0
-3 -16 -43 0
-3 -17 -44 0
-3 -18 -45 0
-3 -19 -46 0
-3 -20 -47 0
-3 -21 -48 0
-3 -22 -49 0
-3 -23 -50 0
-4 -24 -33 0
-4 -25 -34 0
-4 -26 -35 0
-4 -27 -36 0
-4 -28 -37 0
-4 -29 -38 0
-4 -30 -39 0
-4 -31 -40 0
-4 -32 -41 0
-5 -24 -42 0
-5 -25 -43 0
-5 -26 -44 0
-5 -27 -45 0
-5 -28 -46 0
-5 -29 -47 0
-5 -30 -48 0
-5 -31 -49 0
-5 -32 -50 0
-6 -33 -42 0
-6 -34 -43 0
-6 -35 -44 0
-6 -36 -45 0
-6 -37 -46 0
-6 -38 -47 0
-6 -39 -48 0
-6 -40 -49 0
-6 -41 -50 0